
  12    4
  10   10   10   10

   0   0   0   0   0   7 2 3 4 5 6 10 11 
   5  10  10  10  10   2 9 7 
   9  10  10  10  10   2 9 7 
   2  10  10  10  10   2 8 7 
   9  10  10  10  10   2 8 7 
   6  10  10  10  10   1 8 
   2  10  10  10  10   1 12
   4  10  10  10  10   1 12
   4  10  10  10  10   1 12
  10  10  10  10  10   1 12
   7  10  10  10  10   1 12
   0   0   0   0   0   0 
